\* AssignmentProblem *\
Minimize
OBJ: 17066.871253 A320_000_KATL_KBOS + 30716.9120172 A320_000_KATL_KLAX
 + 18509.4741063 A320_000_KATL_KMSP + 50808.1454329 A320_000_KATL_PANC
 + 17132.4818272 A320_000_KBOS_KATL + 37312.6452417 A320_000_KIAD_KSFO
 + 16686.4666415 A320_000_KIAH_KORD + 37637.2598569 A320_000_KJFK_KSEA
 + 53723.3764824 A320_000_KJFK_LFPG + 30839.7121981 A320_000_KLAX_KATL
 + 16931.1978209 A320_000_KMSP_KATL + 16955.0698081 A320_000_KORD_KIAH
 + 37415.6047443 A320_000_KSEA_KJFK + 37117.379684 A320_000_KSFO_KIAD
 + 50625.6052414 A320_000_PANC_KATL + 17066.871253 A320_003_KATL_KBOS
 + 30716.9120172 A320_003_KATL_KLAX + 18509.4741063 A320_003_KATL_KMSP
 + 50808.1454329 A320_003_KATL_PANC + 17132.4818272 A320_003_KBOS_KATL
 + 37312.6452417 A320_003_KIAD_KSFO + 16686.4666415 A320_003_KIAH_KORD
 + 37637.2598569 A320_003_KJFK_KSEA + 53723.3764824 A320_003_KJFK_LFPG
 + 30839.7121981 A320_003_KLAX_KATL + 16931.1978209 A320_003_KMSP_KATL
 + 16955.0698081 A320_003_KORD_KIAH + 37415.6047443 A320_003_KSEA_KJFK
 + 37117.379684 A320_003_KSFO_KIAD + 50625.6052414 A320_003_PANC_KATL
 + 17066.871253 A320_006_KATL_KBOS + 30716.9120172 A320_006_KATL_KLAX
 + 18509.4741063 A320_006_KATL_KMSP + 50808.1454329 A320_006_KATL_PANC
 + 17132.4818272 A320_006_KBOS_KATL + 37312.6452417 A320_006_KIAD_KSFO
 + 16686.4666415 A320_006_KIAH_KORD + 37637.2598569 A320_006_KJFK_KSEA
 + 53723.3764824 A320_006_KJFK_LFPG + 30839.7121981 A320_006_KLAX_KATL
 + 16931.1978209 A320_006_KMSP_KATL + 16955.0698081 A320_006_KORD_KIAH
 + 37415.6047443 A320_006_KSEA_KJFK + 37117.379684 A320_006_KSFO_KIAD
 + 50625.6052414 A320_006_PANC_KATL + 17066.871253 A320_009_KATL_KBOS
 + 30716.9120172 A320_009_KATL_KLAX + 18509.4741063 A320_009_KATL_KMSP
 + 50808.1454329 A320_009_KATL_PANC + 17132.4818272 A320_009_KBOS_KATL
 + 37312.6452417 A320_009_KIAD_KSFO + 16686.4666415 A320_009_KIAH_KORD
 + 37637.2598569 A320_009_KJFK_KSEA + 53723.3764824 A320_009_KJFK_LFPG
 + 30839.7121981 A320_009_KLAX_KATL + 16931.1978209 A320_009_KMSP_KATL
 + 16955.0698081 A320_009_KORD_KIAH + 37415.6047443 A320_009_KSEA_KJFK
 + 37117.379684 A320_009_KSFO_KIAD + 50625.6052414 A320_009_PANC_KATL
 + 17066.871253 A320_012_KATL_KBOS + 30716.9120172 A320_012_KATL_KLAX
 + 18509.4741063 A320_012_KATL_KMSP + 50808.1454329 A320_012_KATL_PANC
 + 17132.4818272 A320_012_KBOS_KATL + 37312.6452417 A320_012_KIAD_KSFO
 + 16686.4666415 A320_012_KIAH_KORD + 37637.2598569 A320_012_KJFK_KSEA
 + 53723.3764824 A320_012_KJFK_LFPG + 30839.7121981 A320_012_KLAX_KATL
 + 16931.1978209 A320_012_KMSP_KATL + 16955.0698081 A320_012_KORD_KIAH
 + 37415.6047443 A320_012_KSEA_KJFK + 37117.379684 A320_012_KSFO_KIAD
 + 50625.6052414 A320_012_PANC_KATL + 27312.2650169 A332_002_KATL_KBOS
 + 48204.447995 A332_002_KATL_KLAX + 29391.2200554 A332_002_KATL_KMSP
 + 78582.6752891 A332_002_KATL_PANC + 27503.5929888 A332_002_KBOS_KATL
 + 58160.2456879 A332_002_KIAD_KSFO + 26734.8744943 A332_002_KIAH_KORD
 + 58692.267995 A332_002_KJFK_KSEA + 83072.2716372 A332_002_KJFK_LFPG
 + 48433.6038886 A332_002_KLAX_KATL + 27234.7267511 A332_002_KMSP_KATL
 + 27217.4221313 A332_002_KORD_KIAH + 58261.1884691 A332_002_KSEA_KJFK
 + 57833.8603705 A332_002_KSFO_KIAD + 78349.2259729 A332_002_PANC_KATL
 + 27312.2650169 A332_005_KATL_KBOS + 48204.447995 A332_005_KATL_KLAX
 + 29391.2200554 A332_005_KATL_KMSP + 78582.6752891 A332_005_KATL_PANC
 + 27503.5929888 A332_005_KBOS_KATL + 58160.2456879 A332_005_KIAD_KSFO
 + 26734.8744943 A332_005_KIAH_KORD + 58692.267995 A332_005_KJFK_KSEA
 + 83072.2716372 A332_005_KJFK_LFPG + 48433.6038886 A332_005_KLAX_KATL
 + 27234.7267511 A332_005_KMSP_KATL + 27217.4221313 A332_005_KORD_KIAH
 + 58261.1884691 A332_005_KSEA_KJFK + 57833.8603705 A332_005_KSFO_KIAD
 + 78349.2259729 A332_005_PANC_KATL + 27312.2650169 A332_008_KATL_KBOS
 + 48204.447995 A332_008_KATL_KLAX + 29391.2200554 A332_008_KATL_KMSP
 + 78582.6752891 A332_008_KATL_PANC + 27503.5929888 A332_008_KBOS_KATL
 + 58160.2456879 A332_008_KIAD_KSFO + 26734.8744943 A332_008_KIAH_KORD
 + 58692.267995 A332_008_KJFK_KSEA + 83072.2716372 A332_008_KJFK_LFPG
 + 48433.6038886 A332_008_KLAX_KATL + 27234.7267511 A332_008_KMSP_KATL
 + 27217.4221313 A332_008_KORD_KIAH + 58261.1884691 A332_008_KSEA_KJFK
 + 57833.8603705 A332_008_KSFO_KIAD + 78349.2259729 A332_008_PANC_KATL
 + 27312.2650169 A332_011_KATL_KBOS + 48204.447995 A332_011_KATL_KLAX
 + 29391.2200554 A332_011_KATL_KMSP + 78582.6752891 A332_011_KATL_PANC
 + 27503.5929888 A332_011_KBOS_KATL + 58160.2456879 A332_011_KIAD_KSFO
 + 26734.8744943 A332_011_KIAH_KORD + 58692.267995 A332_011_KJFK_KSEA
 + 83072.2716372 A332_011_KJFK_LFPG + 48433.6038886 A332_011_KLAX_KATL
 + 27234.7267511 A332_011_KMSP_KATL + 27217.4221313 A332_011_KORD_KIAH
 + 58261.1884691 A332_011_KSEA_KJFK + 57833.8603705 A332_011_KSFO_KIAD
 + 78349.2259729 A332_011_PANC_KATL + 27312.2650169 A332_014_KATL_KBOS
 + 48204.447995 A332_014_KATL_KLAX + 29391.2200554 A332_014_KATL_KMSP
 + 78582.6752891 A332_014_KATL_PANC + 27503.5929888 A332_014_KBOS_KATL
 + 58160.2456879 A332_014_KIAD_KSFO + 26734.8744943 A332_014_KIAH_KORD
 + 58692.267995 A332_014_KJFK_KSEA + 83072.2716372 A332_014_KJFK_LFPG
 + 48433.6038886 A332_014_KLAX_KATL + 27234.7267511 A332_014_KMSP_KATL
 + 27217.4221313 A332_014_KORD_KIAH + 58261.1884691 A332_014_KSEA_KJFK
 + 57833.8603705 A332_014_KSFO_KIAD + 78349.2259729 A332_014_PANC_KATL
 + 17317.0163334 B738_001_KATL_KBOS + 31391.8978199 B738_001_KATL_KLAX
 + 18768.4513269 B738_001_KATL_KMSP + 51751.1523321 B738_001_KATL_PANC
 + 17313.7080678 B738_001_KBOS_KATL + 38013.7485572 B738_001_KIAD_KSFO
 + 16836.2278741 B738_001_KIAH_KORD + 38292.6939237 B738_001_KJFK_KSEA
 + 54631.2682912 B738_001_KJFK_LFPG + 31402.0241545 B738_001_KLAX_KATL
 + 17188.2038356 B738_001_KMSP_KATL + 17144.7164874 B738_001_KORD_KIAH
 + 38130.6720841 B738_001_KSEA_KJFK + 37806.4291797 B738_001_KSFO_KIAD
 + 51436.4799877 B738_001_PANC_KATL + 17317.0163334 B738_004_KATL_KBOS
 + 31391.8978199 B738_004_KATL_KLAX + 18768.4513269 B738_004_KATL_KMSP
 + 51751.1523321 B738_004_KATL_PANC + 17313.7080678 B738_004_KBOS_KATL
 + 38013.7485572 B738_004_KIAD_KSFO + 16836.2278741 B738_004_KIAH_KORD
 + 38292.6939237 B738_004_KJFK_KSEA + 54631.2682912 B738_004_KJFK_LFPG
 + 31402.0241545 B738_004_KLAX_KATL + 17188.2038356 B738_004_KMSP_KATL
 + 17144.7164874 B738_004_KORD_KIAH + 38130.6720841 B738_004_KSEA_KJFK
 + 37806.4291797 B738_004_KSFO_KIAD + 51436.4799877 B738_004_PANC_KATL
 + 17317.0163334 B738_007_KATL_KBOS + 31391.8978199 B738_007_KATL_KLAX
 + 18768.4513269 B738_007_KATL_KMSP + 51751.1523321 B738_007_KATL_PANC
 + 17313.7080678 B738_007_KBOS_KATL + 38013.7485572 B738_007_KIAD_KSFO
 + 16836.2278741 B738_007_KIAH_KORD + 38292.6939237 B738_007_KJFK_KSEA
 + 54631.2682912 B738_007_KJFK_LFPG + 31402.0241545 B738_007_KLAX_KATL
 + 17188.2038356 B738_007_KMSP_KATL + 17144.7164874 B738_007_KORD_KIAH
 + 38130.6720841 B738_007_KSEA_KJFK + 37806.4291797 B738_007_KSFO_KIAD
 + 51436.4799877 B738_007_PANC_KATL + 17317.0163334 B738_010_KATL_KBOS
 + 31391.8978199 B738_010_KATL_KLAX + 18768.4513269 B738_010_KATL_KMSP
 + 51751.1523321 B738_010_KATL_PANC + 17313.7080678 B738_010_KBOS_KATL
 + 38013.7485572 B738_010_KIAD_KSFO + 16836.2278741 B738_010_KIAH_KORD
 + 38292.6939237 B738_010_KJFK_KSEA + 54631.2682912 B738_010_KJFK_LFPG
 + 31402.0241545 B738_010_KLAX_KATL + 17188.2038356 B738_010_KMSP_KATL
 + 17144.7164874 B738_010_KORD_KIAH + 38130.6720841 B738_010_KSEA_KJFK
 + 37806.4291797 B738_010_KSFO_KIAD + 51436.4799877 B738_010_PANC_KATL
 + 17317.0163334 B738_013_KATL_KBOS + 31391.8978199 B738_013_KATL_KLAX
 + 18768.4513269 B738_013_KATL_KMSP + 51751.1523321 B738_013_KATL_PANC
 + 17313.7080678 B738_013_KBOS_KATL + 38013.7485572 B738_013_KIAD_KSFO
 + 16836.2278741 B738_013_KIAH_KORD + 38292.6939237 B738_013_KJFK_KSEA
 + 54631.2682912 B738_013_KJFK_LFPG + 31402.0241545 B738_013_KLAX_KATL
 + 17188.2038356 B738_013_KMSP_KATL + 17144.7164874 B738_013_KORD_KIAH
 + 38130.6720841 B738_013_KSEA_KJFK + 37806.4291797 B738_013_KSFO_KIAD
 + 51436.4799877 B738_013_PANC_KATL
Subject To
_C1: A320_000_KATL_KBOS + A320_000_KATL_KLAX + A320_000_KATL_KMSP
 + A320_000_KATL_PANC + A320_000_KBOS_KATL + A320_000_KIAD_KSFO
 + A320_000_KIAH_KORD + A320_000_KJFK_KSEA + A320_000_KJFK_LFPG
 + A320_000_KLAX_KATL + A320_000_KMSP_KATL + A320_000_KORD_KIAH
 + A320_000_KSEA_KJFK + A320_000_KSFO_KIAD + A320_000_PANC_KATL <= 1
_C10: A320_009_KATL_KBOS + A320_009_KATL_KLAX + A320_009_KATL_KMSP
 + A320_009_KATL_PANC + A320_009_KBOS_KATL + A320_009_KIAD_KSFO
 + A320_009_KIAH_KORD + A320_009_KJFK_KSEA + A320_009_KJFK_LFPG
 + A320_009_KLAX_KATL + A320_009_KMSP_KATL + A320_009_KORD_KIAH
 + A320_009_KSEA_KJFK + A320_009_KSFO_KIAD + A320_009_PANC_KATL <= 1
_C11: B738_010_KATL_KBOS + B738_010_KATL_KLAX + B738_010_KATL_KMSP
 + B738_010_KATL_PANC + B738_010_KBOS_KATL + B738_010_KIAD_KSFO
 + B738_010_KIAH_KORD + B738_010_KJFK_KSEA + B738_010_KJFK_LFPG
 + B738_010_KLAX_KATL + B738_010_KMSP_KATL + B738_010_KORD_KIAH
 + B738_010_KSEA_KJFK + B738_010_KSFO_KIAD + B738_010_PANC_KATL <= 1
_C12: A332_011_KATL_KBOS + A332_011_KATL_KLAX + A332_011_KATL_KMSP
 + A332_011_KATL_PANC + A332_011_KBOS_KATL + A332_011_KIAD_KSFO
 + A332_011_KIAH_KORD + A332_011_KJFK_KSEA + A332_011_KJFK_LFPG
 + A332_011_KLAX_KATL + A332_011_KMSP_KATL + A332_011_KORD_KIAH
 + A332_011_KSEA_KJFK + A332_011_KSFO_KIAD + A332_011_PANC_KATL <= 1
_C13: A320_012_KATL_KBOS + A320_012_KATL_KLAX + A320_012_KATL_KMSP
 + A320_012_KATL_PANC + A320_012_KBOS_KATL + A320_012_KIAD_KSFO
 + A320_012_KIAH_KORD + A320_012_KJFK_KSEA + A320_012_KJFK_LFPG
 + A320_012_KLAX_KATL + A320_012_KMSP_KATL + A320_012_KORD_KIAH
 + A320_012_KSEA_KJFK + A320_012_KSFO_KIAD + A320_012_PANC_KATL <= 1
_C14: B738_013_KATL_KBOS + B738_013_KATL_KLAX + B738_013_KATL_KMSP
 + B738_013_KATL_PANC + B738_013_KBOS_KATL + B738_013_KIAD_KSFO
 + B738_013_KIAH_KORD + B738_013_KJFK_KSEA + B738_013_KJFK_LFPG
 + B738_013_KLAX_KATL + B738_013_KMSP_KATL + B738_013_KORD_KIAH
 + B738_013_KSEA_KJFK + B738_013_KSFO_KIAD + B738_013_PANC_KATL <= 1
_C15: A332_014_KATL_KBOS + A332_014_KATL_KLAX + A332_014_KATL_KMSP
 + A332_014_KATL_PANC + A332_014_KBOS_KATL + A332_014_KIAD_KSFO
 + A332_014_KIAH_KORD + A332_014_KJFK_KSEA + A332_014_KJFK_LFPG
 + A332_014_KLAX_KATL + A332_014_KMSP_KATL + A332_014_KORD_KIAH
 + A332_014_KSEA_KJFK + A332_014_KSFO_KIAD + A332_014_PANC_KATL <= 1
_C16: A320_000_KATL_KLAX + A320_003_KATL_KLAX + A320_006_KATL_KLAX
 + A320_009_KATL_KLAX + A320_012_KATL_KLAX + A332_002_KATL_KLAX
 + A332_005_KATL_KLAX + A332_008_KATL_KLAX + A332_011_KATL_KLAX
 + A332_014_KATL_KLAX + B738_001_KATL_KLAX + B738_004_KATL_KLAX
 + B738_007_KATL_KLAX + B738_010_KATL_KLAX + B738_013_KATL_KLAX = 1
_C17: A320_000_KJFK_KSEA + A320_003_KJFK_KSEA + A320_006_KJFK_KSEA
 + A320_009_KJFK_KSEA + A320_012_KJFK_KSEA + A332_002_KJFK_KSEA
 + A332_005_KJFK_KSEA + A332_008_KJFK_KSEA + A332_011_KJFK_KSEA
 + A332_014_KJFK_KSEA + B738_001_KJFK_KSEA + B738_004_KJFK_KSEA
 + B738_007_KJFK_KSEA + B738_010_KJFK_KSEA + B738_013_KJFK_KSEA = 1
_C18: A320_000_KATL_KMSP + A320_003_KATL_KMSP + A320_006_KATL_KMSP
 + A320_009_KATL_KMSP + A320_012_KATL_KMSP + A332_002_KATL_KMSP
 + A332_005_KATL_KMSP + A332_008_KATL_KMSP + A332_011_KATL_KMSP
 + A332_014_KATL_KMSP + B738_001_KATL_KMSP + B738_004_KATL_KMSP
 + B738_007_KATL_KMSP + B738_010_KATL_KMSP + B738_013_KATL_KMSP = 1
_C19: A320_000_KBOS_KATL + A320_003_KBOS_KATL + A320_006_KBOS_KATL
 + A320_009_KBOS_KATL + A320_012_KBOS_KATL + A332_002_KBOS_KATL
 + A332_005_KBOS_KATL + A332_008_KBOS_KATL + A332_011_KBOS_KATL
 + A332_014_KBOS_KATL + B738_001_KBOS_KATL + B738_004_KBOS_KATL
 + B738_007_KBOS_KATL + B738_010_KBOS_KATL + B738_013_KBOS_KATL = 1
_C2: B738_001_KATL_KBOS + B738_001_KATL_KLAX + B738_001_KATL_KMSP
 + B738_001_KATL_PANC + B738_001_KBOS_KATL + B738_001_KIAD_KSFO
 + B738_001_KIAH_KORD + B738_001_KJFK_KSEA + B738_001_KJFK_LFPG
 + B738_001_KLAX_KATL + B738_001_KMSP_KATL + B738_001_KORD_KIAH
 + B738_001_KSEA_KJFK + B738_001_KSFO_KIAD + B738_001_PANC_KATL <= 1
_C20: A320_000_KIAH_KORD + A320_003_KIAH_KORD + A320_006_KIAH_KORD
 + A320_009_KIAH_KORD + A320_012_KIAH_KORD + A332_002_KIAH_KORD
 + A332_005_KIAH_KORD + A332_008_KIAH_KORD + A332_011_KIAH_KORD
 + A332_014_KIAH_KORD + B738_001_KIAH_KORD + B738_004_KIAH_KORD
 + B738_007_KIAH_KORD + B738_010_KIAH_KORD + B738_013_KIAH_KORD = 1
_C21: A320_000_KIAD_KSFO + A320_003_KIAD_KSFO + A320_006_KIAD_KSFO
 + A320_009_KIAD_KSFO + A320_012_KIAD_KSFO + A332_002_KIAD_KSFO
 + A332_005_KIAD_KSFO + A332_008_KIAD_KSFO + A332_011_KIAD_KSFO
 + A332_014_KIAD_KSFO + B738_001_KIAD_KSFO + B738_004_KIAD_KSFO
 + B738_007_KIAD_KSFO + B738_010_KIAD_KSFO + B738_013_KIAD_KSFO = 1
_C22: A320_000_PANC_KATL + A320_003_PANC_KATL + A320_006_PANC_KATL
 + A320_009_PANC_KATL + A320_012_PANC_KATL + A332_002_PANC_KATL
 + A332_005_PANC_KATL + A332_008_PANC_KATL + A332_011_PANC_KATL
 + A332_014_PANC_KATL + B738_001_PANC_KATL + B738_004_PANC_KATL
 + B738_007_PANC_KATL + B738_010_PANC_KATL + B738_013_PANC_KATL = 1
_C23: A320_000_KLAX_KATL + A320_003_KLAX_KATL + A320_006_KLAX_KATL
 + A320_009_KLAX_KATL + A320_012_KLAX_KATL + A332_002_KLAX_KATL
 + A332_005_KLAX_KATL + A332_008_KLAX_KATL + A332_011_KLAX_KATL
 + A332_014_KLAX_KATL + B738_001_KLAX_KATL + B738_004_KLAX_KATL
 + B738_007_KLAX_KATL + B738_010_KLAX_KATL + B738_013_KLAX_KATL = 1
_C24: A320_000_KSEA_KJFK + A320_003_KSEA_KJFK + A320_006_KSEA_KJFK
 + A320_009_KSEA_KJFK + A320_012_KSEA_KJFK + A332_002_KSEA_KJFK
 + A332_005_KSEA_KJFK + A332_008_KSEA_KJFK + A332_011_KSEA_KJFK
 + A332_014_KSEA_KJFK + B738_001_KSEA_KJFK + B738_004_KSEA_KJFK
 + B738_007_KSEA_KJFK + B738_010_KSEA_KJFK + B738_013_KSEA_KJFK = 1
_C25: A320_000_KMSP_KATL + A320_003_KMSP_KATL + A320_006_KMSP_KATL
 + A320_009_KMSP_KATL + A320_012_KMSP_KATL + A332_002_KMSP_KATL
 + A332_005_KMSP_KATL + A332_008_KMSP_KATL + A332_011_KMSP_KATL
 + A332_014_KMSP_KATL + B738_001_KMSP_KATL + B738_004_KMSP_KATL
 + B738_007_KMSP_KATL + B738_010_KMSP_KATL + B738_013_KMSP_KATL = 1
_C26: A320_000_KATL_KBOS + A320_003_KATL_KBOS + A320_006_KATL_KBOS
 + A320_009_KATL_KBOS + A320_012_KATL_KBOS + A332_002_KATL_KBOS
 + A332_005_KATL_KBOS + A332_008_KATL_KBOS + A332_011_KATL_KBOS
 + A332_014_KATL_KBOS + B738_001_KATL_KBOS + B738_004_KATL_KBOS
 + B738_007_KATL_KBOS + B738_010_KATL_KBOS + B738_013_KATL_KBOS = 1
_C27: A320_000_KORD_KIAH + A320_003_KORD_KIAH + A320_006_KORD_KIAH
 + A320_009_KORD_KIAH + A320_012_KORD_KIAH + A332_002_KORD_KIAH
 + A332_005_KORD_KIAH + A332_008_KORD_KIAH + A332_011_KORD_KIAH
 + A332_014_KORD_KIAH + B738_001_KORD_KIAH + B738_004_KORD_KIAH
 + B738_007_KORD_KIAH + B738_010_KORD_KIAH + B738_013_KORD_KIAH = 1
_C28: A320_000_KSFO_KIAD + A320_003_KSFO_KIAD + A320_006_KSFO_KIAD
 + A320_009_KSFO_KIAD + A320_012_KSFO_KIAD + A332_002_KSFO_KIAD
 + A332_005_KSFO_KIAD + A332_008_KSFO_KIAD + A332_011_KSFO_KIAD
 + A332_014_KSFO_KIAD + B738_001_KSFO_KIAD + B738_004_KSFO_KIAD
 + B738_007_KSFO_KIAD + B738_010_KSFO_KIAD + B738_013_KSFO_KIAD = 1
_C29: A320_000_KATL_PANC + A320_003_KATL_PANC + A320_006_KATL_PANC
 + A320_009_KATL_PANC + A320_012_KATL_PANC + A332_002_KATL_PANC
 + A332_005_KATL_PANC + A332_008_KATL_PANC + A332_011_KATL_PANC
 + A332_014_KATL_PANC + B738_001_KATL_PANC + B738_004_KATL_PANC
 + B738_007_KATL_PANC + B738_010_KATL_PANC + B738_013_KATL_PANC = 1
_C3: A332_002_KATL_KBOS + A332_002_KATL_KLAX + A332_002_KATL_KMSP
 + A332_002_KATL_PANC + A332_002_KBOS_KATL + A332_002_KIAD_KSFO
 + A332_002_KIAH_KORD + A332_002_KJFK_KSEA + A332_002_KJFK_LFPG
 + A332_002_KLAX_KATL + A332_002_KMSP_KATL + A332_002_KORD_KIAH
 + A332_002_KSEA_KJFK + A332_002_KSFO_KIAD + A332_002_PANC_KATL <= 1
_C30: A320_000_KJFK_LFPG + A320_003_KJFK_LFPG + A320_006_KJFK_LFPG
 + A320_009_KJFK_LFPG + A320_012_KJFK_LFPG + A332_002_KJFK_LFPG
 + A332_005_KJFK_LFPG + A332_008_KJFK_LFPG + A332_011_KJFK_LFPG
 + A332_014_KJFK_LFPG + B738_001_KJFK_LFPG + B738_004_KJFK_LFPG
 + B738_007_KJFK_LFPG + B738_010_KJFK_LFPG + B738_013_KJFK_LFPG = 1
_C4: A320_003_KATL_KBOS + A320_003_KATL_KLAX + A320_003_KATL_KMSP
 + A320_003_KATL_PANC + A320_003_KBOS_KATL + A320_003_KIAD_KSFO
 + A320_003_KIAH_KORD + A320_003_KJFK_KSEA + A320_003_KJFK_LFPG
 + A320_003_KLAX_KATL + A320_003_KMSP_KATL + A320_003_KORD_KIAH
 + A320_003_KSEA_KJFK + A320_003_KSFO_KIAD + A320_003_PANC_KATL <= 1
_C5: B738_004_KATL_KBOS + B738_004_KATL_KLAX + B738_004_KATL_KMSP
 + B738_004_KATL_PANC + B738_004_KBOS_KATL + B738_004_KIAD_KSFO
 + B738_004_KIAH_KORD + B738_004_KJFK_KSEA + B738_004_KJFK_LFPG
 + B738_004_KLAX_KATL + B738_004_KMSP_KATL + B738_004_KORD_KIAH
 + B738_004_KSEA_KJFK + B738_004_KSFO_KIAD + B738_004_PANC_KATL <= 1
_C6: A332_005_KATL_KBOS + A332_005_KATL_KLAX + A332_005_KATL_KMSP
 + A332_005_KATL_PANC + A332_005_KBOS_KATL + A332_005_KIAD_KSFO
 + A332_005_KIAH_KORD + A332_005_KJFK_KSEA + A332_005_KJFK_LFPG
 + A332_005_KLAX_KATL + A332_005_KMSP_KATL + A332_005_KORD_KIAH
 + A332_005_KSEA_KJFK + A332_005_KSFO_KIAD + A332_005_PANC_KATL <= 1
_C7: A320_006_KATL_KBOS + A320_006_KATL_KLAX + A320_006_KATL_KMSP
 + A320_006_KATL_PANC + A320_006_KBOS_KATL + A320_006_KIAD_KSFO
 + A320_006_KIAH_KORD + A320_006_KJFK_KSEA + A320_006_KJFK_LFPG
 + A320_006_KLAX_KATL + A320_006_KMSP_KATL + A320_006_KORD_KIAH
 + A320_006_KSEA_KJFK + A320_006_KSFO_KIAD + A320_006_PANC_KATL <= 1
_C8: B738_007_KATL_KBOS + B738_007_KATL_KLAX + B738_007_KATL_KMSP
 + B738_007_KATL_PANC + B738_007_KBOS_KATL + B738_007_KIAD_KSFO
 + B738_007_KIAH_KORD + B738_007_KJFK_KSEA + B738_007_KJFK_LFPG
 + B738_007_KLAX_KATL + B738_007_KMSP_KATL + B738_007_KORD_KIAH
 + B738_007_KSEA_KJFK + B738_007_KSFO_KIAD + B738_007_PANC_KATL <= 1
_C9: A332_008_KATL_KBOS + A332_008_KATL_KLAX + A332_008_KATL_KMSP
 + A332_008_KATL_PANC + A332_008_KBOS_KATL + A332_008_KIAD_KSFO
 + A332_008_KIAH_KORD + A332_008_KJFK_KSEA + A332_008_KJFK_LFPG
 + A332_008_KLAX_KATL + A332_008_KMSP_KATL + A332_008_KORD_KIAH
 + A332_008_KSEA_KJFK + A332_008_KSFO_KIAD + A332_008_PANC_KATL <= 1
Binaries
A320_000_KATL_KBOS
A320_000_KATL_KLAX
A320_000_KATL_KMSP
A320_000_KATL_PANC
A320_000_KBOS_KATL
A320_000_KIAD_KSFO
A320_000_KIAH_KORD
A320_000_KJFK_KSEA
A320_000_KJFK_LFPG
A320_000_KLAX_KATL
A320_000_KMSP_KATL
A320_000_KORD_KIAH
A320_000_KSEA_KJFK
A320_000_KSFO_KIAD
A320_000_PANC_KATL
A320_003_KATL_KBOS
A320_003_KATL_KLAX
A320_003_KATL_KMSP
A320_003_KATL_PANC
A320_003_KBOS_KATL
A320_003_KIAD_KSFO
A320_003_KIAH_KORD
A320_003_KJFK_KSEA
A320_003_KJFK_LFPG
A320_003_KLAX_KATL
A320_003_KMSP_KATL
A320_003_KORD_KIAH
A320_003_KSEA_KJFK
A320_003_KSFO_KIAD
A320_003_PANC_KATL
A320_006_KATL_KBOS
A320_006_KATL_KLAX
A320_006_KATL_KMSP
A320_006_KATL_PANC
A320_006_KBOS_KATL
A320_006_KIAD_KSFO
A320_006_KIAH_KORD
A320_006_KJFK_KSEA
A320_006_KJFK_LFPG
A320_006_KLAX_KATL
A320_006_KMSP_KATL
A320_006_KORD_KIAH
A320_006_KSEA_KJFK
A320_006_KSFO_KIAD
A320_006_PANC_KATL
A320_009_KATL_KBOS
A320_009_KATL_KLAX
A320_009_KATL_KMSP
A320_009_KATL_PANC
A320_009_KBOS_KATL
A320_009_KIAD_KSFO
A320_009_KIAH_KORD
A320_009_KJFK_KSEA
A320_009_KJFK_LFPG
A320_009_KLAX_KATL
A320_009_KMSP_KATL
A320_009_KORD_KIAH
A320_009_KSEA_KJFK
A320_009_KSFO_KIAD
A320_009_PANC_KATL
A320_012_KATL_KBOS
A320_012_KATL_KLAX
A320_012_KATL_KMSP
A320_012_KATL_PANC
A320_012_KBOS_KATL
A320_012_KIAD_KSFO
A320_012_KIAH_KORD
A320_012_KJFK_KSEA
A320_012_KJFK_LFPG
A320_012_KLAX_KATL
A320_012_KMSP_KATL
A320_012_KORD_KIAH
A320_012_KSEA_KJFK
A320_012_KSFO_KIAD
A320_012_PANC_KATL
A332_002_KATL_KBOS
A332_002_KATL_KLAX
A332_002_KATL_KMSP
A332_002_KATL_PANC
A332_002_KBOS_KATL
A332_002_KIAD_KSFO
A332_002_KIAH_KORD
A332_002_KJFK_KSEA
A332_002_KJFK_LFPG
A332_002_KLAX_KATL
A332_002_KMSP_KATL
A332_002_KORD_KIAH
A332_002_KSEA_KJFK
A332_002_KSFO_KIAD
A332_002_PANC_KATL
A332_005_KATL_KBOS
A332_005_KATL_KLAX
A332_005_KATL_KMSP
A332_005_KATL_PANC
A332_005_KBOS_KATL
A332_005_KIAD_KSFO
A332_005_KIAH_KORD
A332_005_KJFK_KSEA
A332_005_KJFK_LFPG
A332_005_KLAX_KATL
A332_005_KMSP_KATL
A332_005_KORD_KIAH
A332_005_KSEA_KJFK
A332_005_KSFO_KIAD
A332_005_PANC_KATL
A332_008_KATL_KBOS
A332_008_KATL_KLAX
A332_008_KATL_KMSP
A332_008_KATL_PANC
A332_008_KBOS_KATL
A332_008_KIAD_KSFO
A332_008_KIAH_KORD
A332_008_KJFK_KSEA
A332_008_KJFK_LFPG
A332_008_KLAX_KATL
A332_008_KMSP_KATL
A332_008_KORD_KIAH
A332_008_KSEA_KJFK
A332_008_KSFO_KIAD
A332_008_PANC_KATL
A332_011_KATL_KBOS
A332_011_KATL_KLAX
A332_011_KATL_KMSP
A332_011_KATL_PANC
A332_011_KBOS_KATL
A332_011_KIAD_KSFO
A332_011_KIAH_KORD
A332_011_KJFK_KSEA
A332_011_KJFK_LFPG
A332_011_KLAX_KATL
A332_011_KMSP_KATL
A332_011_KORD_KIAH
A332_011_KSEA_KJFK
A332_011_KSFO_KIAD
A332_011_PANC_KATL
A332_014_KATL_KBOS
A332_014_KATL_KLAX
A332_014_KATL_KMSP
A332_014_KATL_PANC
A332_014_KBOS_KATL
A332_014_KIAD_KSFO
A332_014_KIAH_KORD
A332_014_KJFK_KSEA
A332_014_KJFK_LFPG
A332_014_KLAX_KATL
A332_014_KMSP_KATL
A332_014_KORD_KIAH
A332_014_KSEA_KJFK
A332_014_KSFO_KIAD
A332_014_PANC_KATL
B738_001_KATL_KBOS
B738_001_KATL_KLAX
B738_001_KATL_KMSP
B738_001_KATL_PANC
B738_001_KBOS_KATL
B738_001_KIAD_KSFO
B738_001_KIAH_KORD
B738_001_KJFK_KSEA
B738_001_KJFK_LFPG
B738_001_KLAX_KATL
B738_001_KMSP_KATL
B738_001_KORD_KIAH
B738_001_KSEA_KJFK
B738_001_KSFO_KIAD
B738_001_PANC_KATL
B738_004_KATL_KBOS
B738_004_KATL_KLAX
B738_004_KATL_KMSP
B738_004_KATL_PANC
B738_004_KBOS_KATL
B738_004_KIAD_KSFO
B738_004_KIAH_KORD
B738_004_KJFK_KSEA
B738_004_KJFK_LFPG
B738_004_KLAX_KATL
B738_004_KMSP_KATL
B738_004_KORD_KIAH
B738_004_KSEA_KJFK
B738_004_KSFO_KIAD
B738_004_PANC_KATL
B738_007_KATL_KBOS
B738_007_KATL_KLAX
B738_007_KATL_KMSP
B738_007_KATL_PANC
B738_007_KBOS_KATL
B738_007_KIAD_KSFO
B738_007_KIAH_KORD
B738_007_KJFK_KSEA
B738_007_KJFK_LFPG
B738_007_KLAX_KATL
B738_007_KMSP_KATL
B738_007_KORD_KIAH
B738_007_KSEA_KJFK
B738_007_KSFO_KIAD
B738_007_PANC_KATL
B738_010_KATL_KBOS
B738_010_KATL_KLAX
B738_010_KATL_KMSP
B738_010_KATL_PANC
B738_010_KBOS_KATL
B738_010_KIAD_KSFO
B738_010_KIAH_KORD
B738_010_KJFK_KSEA
B738_010_KJFK_LFPG
B738_010_KLAX_KATL
B738_010_KMSP_KATL
B738_010_KORD_KIAH
B738_010_KSEA_KJFK
B738_010_KSFO_KIAD
B738_010_PANC_KATL
B738_013_KATL_KBOS
B738_013_KATL_KLAX
B738_013_KATL_KMSP
B738_013_KATL_PANC
B738_013_KBOS_KATL
B738_013_KIAD_KSFO
B738_013_KIAH_KORD
B738_013_KJFK_KSEA
B738_013_KJFK_LFPG
B738_013_KLAX_KATL
B738_013_KMSP_KATL
B738_013_KORD_KIAH
B738_013_KSEA_KJFK
B738_013_KSFO_KIAD
B738_013_PANC_KATL
End
